proyfinal/src/viki/013/andrea/andrea-localstore/experimentInOfficeAgust.take6/worker_5/25009f34-cde0-4bad-8c99-5c63266635c0.als.cnf.out
Reading from standard input... Use '--help' for help.
============================[ Problem Statistics ]=============================
|                                                                             |
|  Number of variables:         87638                                         |
|  Number of clauses:          161767                                         |
|  Parse time:                   0.03 s                                       |
|                                                                             |
============================[ Search Statistics ]==============================
| Conflicts |          ORIGINAL         |          LEARNT          | Progress |
|           |    Vars  Clauses Literals |    Limit  Clauses Lit/Cl |          |
===============================================================================
|       100 |   63224   108245   270387 |    39689      100      9 | 27.858 % |
|       250 |   63175   108049   269925 |    43658      248     38 | 27.914 % |
|       475 |   63156   107973   269749 |    48024      472     39 | 27.935 % |
|       812 |   63156   107973   269749 |    52827      809     39 | 27.935 % |
|      1318 |   63127   107855   269474 |    58109     1313     78 | 27.968 % |
|      2077 |   63109   107743   269222 |    63920     2069     90 | 27.989 % |
|      3216 |   62922   107003   267465 |    70312     3197     79 | 28.203 % |
|      4924 |   62902   106919   267272 |    77344     4648     86 | 28.225 % |
|      7486 |   62878   106819   267043 |    85078     7206     82 | 28.253 % |
|     11330 |   62856   106727   266832 |    93586    11047     96 | 28.278 % |
===============================================================================
restarts              : 62
conflicts             : 15073          (6921 /sec)
decisions             : 63316          (0.00 % random) (29074 /sec)
propagations          : 21503025       (9873968 /sec)
conflict literals     : 1393483        (43.99 % deleted)
Memory used           : 31.07 MB
CPU time              : 2.17775 s

INDETERMINATE
